PARAMETER_FILE = /home/jyf/ROS_project/RACER-test/src/RACER-main/swarm_exploration/utils/lkh_mtsp_solver/resource/amtsp2_4.par
PROBLEM_FILE = /home/jyf/ROS_project/RACER-test/src/RACER-main/swarm_exploration/utils/lkh_mtsp_solver/resource/amtsp2_4.atsp
Successes/Runs = 0/1 
Cost.min = -101200, Cost.avg = -101200.00, Cost.max = -101200
Gap.min = -0.0000%, Gap.avg = -0.0000%, Gap.max = -0.0000%
Trials.min = 22, Trials.avg = 22.0, Trials.max = 22
Time.min = 0.00 sec., Time.avg = 0.00 sec., Time.max = 0.00 sec.
Best ATSP solution:
  Cost = 0_-101200

PARAMETER_FILE = /home/jyf/ROS_project/RACER-test/src/RACER-main/swarm_exploration/utils/lkh_mtsp_solver/resource/amtsp2_4.par
PROBLEM_FILE = /home/jyf/ROS_project/RACER-test/src/RACER-main/swarm_exploration/utils/lkh_mtsp_solver/resource/amtsp2_4.atsp
Successes/Runs = 0/1 
Cost.min = -101699, Cost.avg = -101699.00, Cost.max = -101699
Gap.min = -0.0000%, Gap.avg = -0.0000%, Gap.max = -0.0000%
Trials.min = 22, Trials.avg = 22.0, Trials.max = 22
Time.min = 0.00 sec., Time.avg = 0.00 sec., Time.max = 0.00 sec.
Best ATSP solution:
  Cost = 0_-101699

PARAMETER_FILE = /home/jyf/ROS_project/RACER-test/src/RACER-main/swarm_exploration/utils/lkh_mtsp_solver/resource/amtsp_4.par
PROBLEM_FILE = /home/jyf/ROS_project/RACER-test/src/RACER-main/swarm_exploration/utils/lkh_mtsp_solver/resource/amtsp_4.atsp
Successes/Runs = 1/0 
Cost.min = -199462, Cost.avg = -199462.00, Cost.max = -199462
Gap.min = -0.0000%, Gap.avg = -0.0000%, Gap.max = -0.0000%
Trials.min = 22, Trials.avg = 22.0, Trials.max = 22
Time.min = 0.00 sec., Time.avg = 0.00 sec., Time.max = 0.00 sec.
Best ATSP solution:
  Cost = 0_-199462

PARAMETER_FILE = /home/jyf/ROS_project/RACER-test/src/RACER-main/swarm_exploration/utils/lkh_mtsp_solver/resource/amtsp2_4.par
PROBLEM_FILE = /home/jyf/ROS_project/RACER-test/src/RACER-main/swarm_exploration/utils/lkh_mtsp_solver/resource/amtsp2_4.atsp
Successes/Runs = 0/1 
Cost.min = -102384, Cost.avg = -102384.00, Cost.max = -102384
Gap.min = -0.0000%, Gap.avg = -0.0000%, Gap.max = -0.0000%
Trials.min = 40, Trials.avg = 40.0, Trials.max = 40
Time.min = 0.00 sec., Time.avg = 0.00 sec., Time.max = 0.00 sec.
Best ATSP solution:
  Cost = 0_-102384

PARAMETER_FILE = /home/jyf/ROS_project/RACER-test/src/RACER-main/swarm_exploration/utils/lkh_mtsp_solver/resource/amtsp_4.par
PROBLEM_FILE = /home/jyf/ROS_project/RACER-test/src/RACER-main/swarm_exploration/utils/lkh_mtsp_solver/resource/amtsp_4.atsp
Successes/Runs = 1/0 
Cost.min = -199489, Cost.avg = -199489.00, Cost.max = -199489
Gap.min = -0.0000%, Gap.avg = -0.0000%, Gap.max = -0.0000%
Trials.min = 40, Trials.avg = 40.0, Trials.max = 40
Time.min = 0.00 sec., Time.avg = 0.00 sec., Time.max = 0.00 sec.
Best ATSP solution:
  Cost = 0_-199489

PARAMETER_FILE = /home/jyf/ROS_project/RACER-test/src/RACER-main/swarm_exploration/utils/lkh_mtsp_solver/resource/amtsp2_4.par
PROBLEM_FILE = /home/jyf/ROS_project/RACER-test/src/RACER-main/swarm_exploration/utils/lkh_mtsp_solver/resource/amtsp2_4.atsp
Successes/Runs = 1/0 
Cost.min = -100836, Cost.avg = -100836.00, Cost.max = -100836
Gap.min = -0.0000%, Gap.avg = -0.0000%, Gap.max = -0.0000%
Trials.min = 40, Trials.avg = 40.0, Trials.max = 40
Time.min = 0.00 sec., Time.avg = 0.00 sec., Time.max = 0.00 sec.
Best ATSP solution:
  Cost = 0_-100836

PARAMETER_FILE = /home/jyf/ROS_project/RACER-test/src/RACER-main/swarm_exploration/utils/lkh_mtsp_solver/resource/amtsp_4.par
PROBLEM_FILE = /home/jyf/ROS_project/RACER-test/src/RACER-main/swarm_exploration/utils/lkh_mtsp_solver/resource/amtsp_4.atsp
Successes/Runs = 1/0 
Cost.min = -199183, Cost.avg = -199183.00, Cost.max = -199183
Gap.min = -0.0000%, Gap.avg = -0.0000%, Gap.max = -0.0000%
Trials.min = 40, Trials.avg = 40.0, Trials.max = 40
Time.min = 0.00 sec., Time.avg = 0.00 sec., Time.max = 0.00 sec.
Best ATSP solution:
  Cost = 0_-199183

PARAMETER_FILE = /home/jyf/ROS_project/RACER-test/src/RACER-main/swarm_exploration/utils/lkh_mtsp_solver/resource/amtsp2_4.par
PROBLEM_FILE = /home/jyf/ROS_project/RACER-test/src/RACER-main/swarm_exploration/utils/lkh_mtsp_solver/resource/amtsp2_4.atsp
Successes/Runs = 1/0 
Cost.min = -100736, Cost.avg = -100736.00, Cost.max = -100736
Gap.min = -0.0000%, Gap.avg = -0.0000%, Gap.max = -0.0000%
Trials.min = 40, Trials.avg = 40.0, Trials.max = 40
Time.min = 0.00 sec., Time.avg = 0.00 sec., Time.max = 0.00 sec.
Best ATSP solution:
  Cost = 0_-100736

PARAMETER_FILE = /home/jyf/ROS_project/RACER-test/src/RACER-main/swarm_exploration/utils/lkh_mtsp_solver/resource/amtsp_4.par
PROBLEM_FILE = /home/jyf/ROS_project/RACER-test/src/RACER-main/swarm_exploration/utils/lkh_mtsp_solver/resource/amtsp_4.atsp
Successes/Runs = 1/0 
Cost.min = -199162, Cost.avg = -199162.00, Cost.max = -199162
Gap.min = -0.0000%, Gap.avg = -0.0000%, Gap.max = -0.0000%
Trials.min = 40, Trials.avg = 40.0, Trials.max = 40
Time.min = 0.00 sec., Time.avg = 0.00 sec., Time.max = 0.00 sec.
Best ATSP solution:
  Cost = 0_-199162

PARAMETER_FILE = /home/jyf/ROS_project/RACER-test/src/RACER-main/swarm_exploration/utils/lkh_mtsp_solver/resource/amtsp2_4.par
PROBLEM_FILE = /home/jyf/ROS_project/RACER-test/src/RACER-main/swarm_exploration/utils/lkh_mtsp_solver/resource/amtsp2_4.atsp
Successes/Runs = 1/0 
Cost.min = -99663, Cost.avg = -99663.00, Cost.max = -99663
Gap.min = -0.0000%, Gap.avg = -0.0000%, Gap.max = -0.0000%
Trials.min = 40, Trials.avg = 40.0, Trials.max = 40
Time.min = 0.00 sec., Time.avg = 0.00 sec., Time.max = 0.00 sec.
Best ATSP solution:
  Cost = 0_-99663

PARAMETER_FILE = /home/jyf/ROS_project/RACER-test/src/RACER-main/swarm_exploration/utils/lkh_mtsp_solver/resource/amtsp_4.par
PROBLEM_FILE = /home/jyf/ROS_project/RACER-test/src/RACER-main/swarm_exploration/utils/lkh_mtsp_solver/resource/amtsp_4.atsp
Successes/Runs = 1/0 
Cost.min = -198920, Cost.avg = -198920.00, Cost.max = -198920
Gap.min = -0.0000%, Gap.avg = -0.0000%, Gap.max = -0.0000%
Trials.min = 40, Trials.avg = 40.0, Trials.max = 40
Time.min = 0.00 sec., Time.avg = 0.00 sec., Time.max = 0.00 sec.
Best ATSP solution:
  Cost = 0_-198920

PARAMETER_FILE = /home/jyf/ROS_project/RACER-test/src/RACER-main/swarm_exploration/utils/lkh_mtsp_solver/resource/amtsp2_4.par
PROBLEM_FILE = /home/jyf/ROS_project/RACER-test/src/RACER-main/swarm_exploration/utils/lkh_mtsp_solver/resource/amtsp2_4.atsp
Successes/Runs = 1/0 
Cost.min = -99173, Cost.avg = -99173.00, Cost.max = -99173
Gap.min = -0.0000%, Gap.avg = -0.0000%, Gap.max = -0.0000%
Trials.min = 40, Trials.avg = 40.0, Trials.max = 40
Time.min = 0.00 sec., Time.avg = 0.00 sec., Time.max = 0.00 sec.
Best ATSP solution:
  Cost = 0_-99173

PARAMETER_FILE = /home/jyf/ROS_project/RACER-test/src/RACER-main/swarm_exploration/utils/lkh_mtsp_solver/resource/amtsp_4.par
PROBLEM_FILE = /home/jyf/ROS_project/RACER-test/src/RACER-main/swarm_exploration/utils/lkh_mtsp_solver/resource/amtsp_4.atsp
Successes/Runs = 1/0 
Cost.min = -199285, Cost.avg = -199285.00, Cost.max = -199285
Gap.min = -0.0000%, Gap.avg = -0.0000%, Gap.max = -0.0000%
Trials.min = 40, Trials.avg = 40.0, Trials.max = 40
Time.min = 0.00 sec., Time.avg = 0.00 sec., Time.max = 0.00 sec.
Best ATSP solution:
  Cost = 0_-199285

PARAMETER_FILE = /home/jyf/ROS_project/RACER-test/src/RACER-main/swarm_exploration/utils/lkh_mtsp_solver/resource/amtsp2_4.par
PROBLEM_FILE = /home/jyf/ROS_project/RACER-test/src/RACER-main/swarm_exploration/utils/lkh_mtsp_solver/resource/amtsp2_4.atsp
Successes/Runs = 1/0 
Cost.min = -99764, Cost.avg = -99764.00, Cost.max = -99764
Gap.min = -0.0000%, Gap.avg = -0.0000%, Gap.max = -0.0000%
Trials.min = 40, Trials.avg = 40.0, Trials.max = 40
Time.min = 0.00 sec., Time.avg = 0.00 sec., Time.max = 0.00 sec.
Best ATSP solution:
  Cost = 0_-99764

PARAMETER_FILE = /home/jyf/ROS_project/RACER-test/src/RACER-main/swarm_exploration/utils/lkh_mtsp_solver/resource/amtsp_4.par
PROBLEM_FILE = /home/jyf/ROS_project/RACER-test/src/RACER-main/swarm_exploration/utils/lkh_mtsp_solver/resource/amtsp_4.atsp
Successes/Runs = 1/0 
Cost.min = -199197, Cost.avg = -199197.00, Cost.max = -199197
Gap.min = -0.0000%, Gap.avg = -0.0000%, Gap.max = -0.0000%
Trials.min = 40, Trials.avg = 40.0, Trials.max = 40
Time.min = 0.00 sec., Time.avg = 0.00 sec., Time.max = 0.00 sec.
Best ATSP solution:
  Cost = 0_-199197

PARAMETER_FILE = /home/jyf/ROS_project/RACER-test/src/RACER-main/swarm_exploration/utils/lkh_mtsp_solver/resource/amtsp2_4.par
PROBLEM_FILE = /home/jyf/ROS_project/RACER-test/src/RACER-main/swarm_exploration/utils/lkh_mtsp_solver/resource/amtsp2_4.atsp
Successes/Runs = 0/1 
Cost.min = -100579, Cost.avg = -100579.00, Cost.max = -100579
Gap.min = -0.0000%, Gap.avg = -0.0000%, Gap.max = -0.0000%
Trials.min = 20, Trials.avg = 20.0, Trials.max = 20
Time.min = 0.00 sec., Time.avg = 0.00 sec., Time.max = 0.00 sec.
Best ATSP solution:
  Cost = 0_-100579

PARAMETER_FILE = /home/jyf/ROS_project/RACER-test/src/RACER-main/swarm_exploration/utils/lkh_mtsp_solver/resource/amtsp_4.par
PROBLEM_FILE = /home/jyf/ROS_project/RACER-test/src/RACER-main/swarm_exploration/utils/lkh_mtsp_solver/resource/amtsp_4.atsp
Successes/Runs = 1/0 
Cost.min = -199561, Cost.avg = -199561.00, Cost.max = -199561
Gap.min = -0.0000%, Gap.avg = -0.0000%, Gap.max = -0.0000%
Trials.min = 20, Trials.avg = 20.0, Trials.max = 20
Time.min = 0.00 sec., Time.avg = 0.00 sec., Time.max = 0.00 sec.
Best ATSP solution:
  Cost = 0_-199561

PARAMETER_FILE = /home/jyf/ROS_project/RACER-test/src/RACER-main/swarm_exploration/utils/lkh_mtsp_solver/resource/amtsp2_4.par
PROBLEM_FILE = /home/jyf/ROS_project/RACER-test/src/RACER-main/swarm_exploration/utils/lkh_mtsp_solver/resource/amtsp2_4.atsp
Successes/Runs = 1/0 
Cost.min = -100574, Cost.avg = -100574.00, Cost.max = -100574
Gap.min = -0.0000%, Gap.avg = -0.0000%, Gap.max = -0.0000%
Trials.min = 20, Trials.avg = 20.0, Trials.max = 20
Time.min = 0.00 sec., Time.avg = 0.00 sec., Time.max = 0.00 sec.
Best ATSP solution:
  Cost = 0_-100574

PARAMETER_FILE = /home/jyf/ROS_project/RACER-test/src/RACER-main/swarm_exploration/utils/lkh_mtsp_solver/resource/amtsp_4.par
PROBLEM_FILE = /home/jyf/ROS_project/RACER-test/src/RACER-main/swarm_exploration/utils/lkh_mtsp_solver/resource/amtsp_4.atsp
Successes/Runs = 1/0 
Cost.min = -199595, Cost.avg = -199595.00, Cost.max = -199595
Gap.min = -0.0000%, Gap.avg = -0.0000%, Gap.max = -0.0000%
Trials.min = 20, Trials.avg = 20.0, Trials.max = 20
Time.min = 0.00 sec., Time.avg = 0.00 sec., Time.max = 0.00 sec.
Best ATSP solution:
  Cost = 0_-199595

PARAMETER_FILE = /home/jyf/ROS_project/RACER-test/src/RACER-main/swarm_exploration/utils/lkh_mtsp_solver/resource/amtsp2_4.par
PROBLEM_FILE = /home/jyf/ROS_project/RACER-test/src/RACER-main/swarm_exploration/utils/lkh_mtsp_solver/resource/amtsp2_4.atsp
Successes/Runs = 1/0 
Cost.min = -100565, Cost.avg = -100565.00, Cost.max = -100565
Gap.min = -0.0000%, Gap.avg = -0.0000%, Gap.max = -0.0000%
Trials.min = 20, Trials.avg = 20.0, Trials.max = 20
Time.min = 0.00 sec., Time.avg = 0.00 sec., Time.max = 0.00 sec.
Best ATSP solution:
  Cost = 0_-100565

PARAMETER_FILE = /home/jyf/ROS_project/RACER-test/src/RACER-main/swarm_exploration/utils/lkh_mtsp_solver/resource/amtsp_4.par
PROBLEM_FILE = /home/jyf/ROS_project/RACER-test/src/RACER-main/swarm_exploration/utils/lkh_mtsp_solver/resource/amtsp_4.atsp
Successes/Runs = 1/0 
Cost.min = -199620, Cost.avg = -199620.00, Cost.max = -199620
Gap.min = -0.0000%, Gap.avg = -0.0000%, Gap.max = -0.0000%
Trials.min = 20, Trials.avg = 20.0, Trials.max = 20
Time.min = 0.00 sec., Time.avg = 0.00 sec., Time.max = 0.00 sec.
Best ATSP solution:
  Cost = 0_-199620

PARAMETER_FILE = /home/jyf/ROS_project/RACER-test/src/RACER-main/swarm_exploration/utils/lkh_mtsp_solver/resource/amtsp2_4.par
PROBLEM_FILE = /home/jyf/ROS_project/RACER-test/src/RACER-main/swarm_exploration/utils/lkh_mtsp_solver/resource/amtsp2_4.atsp
Successes/Runs = 1/0 
Cost.min = -100186, Cost.avg = -100186.00, Cost.max = -100186
Gap.min = -0.0000%, Gap.avg = -0.0000%, Gap.max = -0.0000%
Trials.min = 20, Trials.avg = 20.0, Trials.max = 20
Time.min = 0.00 sec., Time.avg = 0.00 sec., Time.max = 0.00 sec.
Best ATSP solution:
  Cost = 0_-100186

PARAMETER_FILE = /home/jyf/ROS_project/RACER-test/src/RACER-main/swarm_exploration/utils/lkh_mtsp_solver/resource/amtsp_4.par
PROBLEM_FILE = /home/jyf/ROS_project/RACER-test/src/RACER-main/swarm_exploration/utils/lkh_mtsp_solver/resource/amtsp_4.atsp
Successes/Runs = 1/0 
Cost.min = -199527, Cost.avg = -199527.00, Cost.max = -199527
Gap.min = -0.0000%, Gap.avg = -0.0000%, Gap.max = -0.0000%
Trials.min = 20, Trials.avg = 20.0, Trials.max = 20
Time.min = 0.00 sec., Time.avg = 0.00 sec., Time.max = 0.00 sec.
Best ATSP solution:
  Cost = 0_-199527

